presolving:
(round 1, fast)       0 del vars, 176 del conss, 0 add conss, 0 chg bounds, 109 chg sides, 109 chg coeffs, 0 upgd conss, 0 impls, 10500 clqs
   (0.3s) running MILP presolver
   (0.3s) MILP presolver found nothing
(round 2, exhaustive) 0 del vars, 176 del conss, 0 add conss, 0 chg bounds, 109 chg sides, 109 chg coeffs, 1784 upgd conss, 0 impls, 10500 clqs
(round 3, exhaustive) 0 del vars, 176 del conss, 0 add conss, 0 chg bounds, 113 chg sides, 298 chg coeffs, 10584 upgd conss, 0 impls, 10500 clqs
   (1.0s) probing: 51/10710 (0.5%) - 0 fixings, 0 aggregations, 0 implications, 0 bound changes
   (1.0s) probing aborted: 50/50 successive totally useless probings
   (1.0s) symmetry computation started: requiring (bin +, int -, cont +), (fixed: bin -, int +, cont -)
   (1.1s) no symmetry present
presolving (4 rounds: 4 fast, 3 medium, 3 exhaustive):
 0 deleted vars, 176 deleted constraints, 0 added constraints, 0 tightened bounds, 0 added holes, 113 changed sides, 298 changed coefficients
 0 implications, 10500 cliques
presolved problem has 10710 variables (10710 bin, 0 int, 0 impl, 0 cont) and 10584 constraints
     32 constraints of type <knapsack>
  10500 constraints of type <setppc>
     52 constraints of type <logicor>
transformed objective value is always integral (scale: 1)
Presolving Time: 1.05

 time | node  | left  |LP iter|LP it/n|mem/heur|mdpt |vars |cons |rows |cuts |sepa|confs|strbr|  dualbound   | primalbound  |  gap   | compl. 
t 1.2s|     1 |     0 |     0 |     - | trivial|   0 |  10k|  10k|   0 |   0 |  0 |   0 |   0 | 0.000000e+00 | 1.496266e+06 |    Inf | unknown
p 1.5s|     1 |     0 |     0 |     - |  clique|   0 |  10k|  10k|  10k|   0 |  0 |   0 |   0 | 0.000000e+00 | 1.684400e+04 |    Inf | unknown
  6.3s|     1 |     0 |  6310 |     - |   151M |   0 |  10k|  10k|  10k|   0 |  0 |  20 |   0 | 9.985000e+03 | 1.684400e+04 |  68.69%| unknown
  9.0s|     1 |     0 |  7607 |     - |   155M |   0 |  10k|  10k|  10k|   2 |  1 |  20 |   0 | 1.006190e+04 | 1.684400e+04 |  67.40%| unknown
  9.8s|     1 |     0 |  7999 |     - |   157M |   0 |  10k|  10k|  10k|   3 |  2 |  20 |   0 | 1.008338e+04 | 1.684400e+04 |  67.05%| unknown
 10.6s|     1 |     0 |  8386 |     - |   158M |   0 |  10k|  10k|  10k|   5 |  3 |  20 |   0 | 1.011600e+04 | 1.684400e+04 |  66.51%| unknown
r10.6s|     1 |     0 |  8386 |     - |rounding|   0 |  10k|  10k|  10k|   5 |  3 |  20 |   0 | 1.011600e+04 | 1.271000e+04 |  25.64%| unknown
 10.9s|     1 |     0 |  8668 |     - |   159M |   0 |  10k|  10k|  10k|   6 |  4 |  20 |   0 | 1.011917e+04 | 1.271000e+04 |  25.60%| unknown
 10.9s|     1 |     0 |  8668 |     - |   159M |   0 |  10k|  10k|9647 |   6 |  4 |  20 |   0 | 1.011917e+04 | 1.271000e+04 |  25.60%| unknown
 11.7s|     1 |     0 |  9356 |     - |   161M |   0 |  10k|9651 |9644 |   8 |  5 |  20 |   0 | 1.014803e+04 | 1.271000e+04 |  25.25%| unknown
 12.7s|     1 |     0 |  9696 |     - |   163M |   0 |  10k|9649 |9645 |   9 |  6 |  20 |   0 | 1.016112e+04 | 1.271000e+04 |  25.08%| unknown
 12.8s|     1 |     0 |  9696 |     - |   163M |   0 |  10k|9649 |9629 |   9 |  6 |  20 |   0 | 1.016112e+04 | 1.271000e+04 |  25.08%| unknown
 13.8s|     1 |     0 | 10195 |     - |   164M |   0 |  10k|9633 |9631 |  11 |  7 |  20 |   0 | 1.016824e+04 | 1.271000e+04 |  25.00%| unknown
 14.9s|     1 |     0 | 10888 |     - |   165M |   0 |  10k|9633 |9634 |  14 |  8 |  20 |   0 | 1.018838e+04 | 1.271000e+04 |  24.75%| unknown
 15.0s|     1 |     0 | 10888 |     - |   165M |   0 |  10k|9633 |9613 |  14 |  8 |  20 |   0 | 1.018838e+04 | 1.271000e+04 |  24.75%| unknown
 time | node  | left  |LP iter|LP it/n|mem/heur|mdpt |vars |cons |rows |cuts |sepa|confs|strbr|  dualbound   | primalbound  |  gap   | compl. 
 16.6s|     1 |     0 | 11503 |     - |   167M |   0 |  10k|9612 |9615 |  16 |  9 |  20 |   0 | 1.020427e+04 | 1.271000e+04 |  24.56%| unknown
 16.6s|     1 |     0 | 11503 |     - |   167M |   0 |  10k|9612 |9600 |  16 |  9 |  20 |   0 | 1.020427e+04 | 1.271000e+04 |  24.56%| unknown
 18.1s|     1 |     0 | 12061 |     - |   168M |   0 |  10k|9597 |9602 |  18 | 10 |  20 |   0 | 1.021816e+04 | 1.271000e+04 |  24.39%| unknown
 18.5s|     1 |     0 | 12255 |     - |   169M |   0 |  10k|9597 |9604 |  20 | 11 |  20 |   0 | 1.022352e+04 | 1.271000e+04 |  24.32%| unknown
 19.1s|     1 |     0 | 12488 |     - |   171M |   0 |  10k|9597 |9605 |  21 | 12 |  20 |   0 | 1.022826e+04 | 1.271000e+04 |  24.26%| unknown
d25.4s|     1 |     0 | 21715 |     - |farkasdi|   0 |  10k|9263 |9605 |   0 | 14 |  20 |   0 | 1.022826e+04 | 1.082900e+04 |   5.87%| unknown
(run 1, node 1) restarting after 1349 global fixings of integer variables

(restart) converted 21 cuts from the global cut pool into linear constraints

presolving:
(round 1, fast)       1349 del vars, 0 del conss, 0 add conss, 0 chg bounds, 0 chg sides, 1610 chg coeffs, 0 upgd conss, 0 impls, 9172 clqs
(round 2, medium)     1349 del vars, 72 del conss, 69 add conss, 0 chg bounds, 0 chg sides, 1610 chg coeffs, 0 upgd conss, 0 impls, 9172 clqs
(round 3, exhaustive) 1349 del vars, 72 del conss, 69 add conss, 0 chg bounds, 0 chg sides, 1610 chg coeffs, 21 upgd conss, 0 impls, 9172 clqs
presolving (4 rounds: 4 fast, 3 medium, 2 exhaustive):
 1349 deleted vars, 72 deleted constraints, 69 added constraints, 0 tightened bounds, 0 added holes, 0 changed sides, 1610 changed coefficients
 0 implications, 9172 cliques
presolved problem has 9361 variables (9361 bin, 0 int, 0 impl, 0 cont) and 9281 constraints
     47 constraints of type <knapsack>
   9172 constraints of type <setppc>
     62 constraints of type <logicor>
transformed objective value is always integral (scale: 1)
Presolving Time: 1.33
transformed 6/7 original solutions to the transformed problem space

 time | node  | left  |LP iter|LP it/n|mem/heur|mdpt |vars |cons |rows |cuts |sepa|confs|strbr|  dualbound   | primalbound  |  gap   | compl. 
 36.5s|     1 |     0 | 40989 |     - |   183M |   0 |9361 |9281 |9271 |   0 |  0 |  20 |   0 | 1.022826e+04 | 1.082900e+04 |   5.87%| unknown
 37.1s|     1 |     0 | 40989 |     - |   184M |   0 |9361 |9281 |6011 |   0 |  0 |  20 |   0 | 1.022826e+04 | 1.082900e+04 |   5.87%| unknown
 38.5s|     1 |     0 | 41164 |     - |   186M |   0 |9361 |6022 |5998 |   1 |  1 |  20 |   0 | 1.023183e+04 | 1.082900e+04 |   5.84%| unknown
 38.5s|     1 |     0 | 41164 |     - |   186M |   0 |9361 |6022 |5963 |   1 |  1 |  20 |   0 | 1.023183e+04 | 1.082900e+04 |   5.84%| unknown
 39.5s|     1 |     0 | 41324 |     - |   186M |   0 |9361 |5987 |5964 |   2 |  2 |  20 |   0 | 1.023542e+04 | 1.082900e+04 |   5.80%| unknown
 39.5s|     1 |     0 | 41324 |     - |   187M |   0 |9361 |5987 |5928 |   2 |  2 |  20 |   0 | 1.023542e+04 | 1.082900e+04 |   5.80%| unknown
(run 2, node 1) restarting after 5849 global fixings of integer variables

(restart) converted 2 cuts from the global cut pool into linear constraints

presolving:
(round 1, fast)       5849 del vars, 7 del conss, 0 add conss, 0 chg bounds, 0 chg sides, 7977 chg coeffs, 0 upgd conss, 0 impls, 3437 clqs
   (45.0s) running MILP presolver
   (45.0s) MILP presolver found nothing
(round 2, medium)     5849 del vars, 61 del conss, 52 add conss, 0 chg bounds, 1 chg sides, 7979 chg coeffs, 0 upgd conss, 0 impls, 3437 clqs
presolving (3 rounds: 3 fast, 2 medium, 1 exhaustive):
 5849 deleted vars, 61 deleted constraints, 52 added constraints, 0 tightened bounds, 0 added holes, 1 changed sides, 7979 changed coefficients
 0 implications, 3437 cliques
presolved problem has 3512 variables (3512 bin, 0 int, 0 impl, 0 cont) and 3541 constraints
     33 constraints of type <knapsack>
   3437 constraints of type <setppc>
     71 constraints of type <logicor>
transformed objective value is always integral (scale: 1)
Presolving Time: 1.49
transformed 7/9 original solutions to the transformed problem space

 time | node  | left  |LP iter|LP it/n|mem/heur|mdpt |vars |cons |rows |cuts |sepa|confs|strbr|  dualbound   | primalbound  |  gap   | compl. 
 47.8s|     1 |     0 | 54154 |     - |   188M |   0 |3512 |3541 |3521 |   0 |  0 |  36 |   0 | 1.023542e+04 | 1.082900e+04 |   5.80%| unknown
 47.9s|     1 |     0 | 54154 |     - |   188M |   0 |3512 |3541 |3268 |   0 |  0 |  36 |   0 | 1.023542e+04 | 1.082900e+04 |   5.80%| unknown
 48.2s|     1 |     0 | 54389 |     - |   189M |   0 |3512 |3288 |3269 |   2 |  1 |  36 |   0 | 1.024249e+04 | 1.082900e+04 |   5.73%| unknown
 48.7s|     1 |     0 | 54505 |     - |   190M |   0 |3512 |3288 |3270 |   3 |  2 |  36 |   0 | 1.024835e+04 | 1.082900e+04 |   5.67%| unknown
 48.7s|     1 |     0 | 54505 |     - |   190M |   0 |3512 |3288 |3261 |   3 |  2 |  36 |   0 | 1.024835e+04 | 1.082900e+04 |   5.67%| unknown
 49.2s|     1 |     0 | 54567 |     - |   190M |   0 |3512 |3279 |3262 |   4 |  4 |  36 |   0 | 1.025047e+04 | 1.082900e+04 |   5.64%| unknown
 49.6s|     1 |     0 | 54675 |     - |   191M |   0 |3512 |3279 |3263 |   5 |  5 |  36 |   0 | 1.025529e+04 | 1.082900e+04 |   5.59%| unknown
 49.9s|     1 |     0 | 54719 |     - |   191M |   0 |3512 |3279 |3264 |   6 |  6 |  36 |   0 | 1.025645e+04 | 1.082900e+04 |   5.58%| unknown
 50.3s|     1 |     0 | 54994 |     - |   192M |   0 |3512 |3279 |3267 |   9 |  7 |  36 |   0 | 1.026595e+04 | 1.082900e+04 |   5.48%| unknown
 50.3s|     1 |     0 | 54994 |     - |   192M |   0 |3512 |3279 |3257 |   9 |  7 |  36 |   0 | 1.026595e+04 | 1.082900e+04 |   5.48%| unknown
 51.0s|     1 |     0 | 55088 |     - |   192M |   0 |3512 |3269 |3258 |  10 |  8 |  36 |   0 | 1.026819e+04 | 1.082900e+04 |   5.46%| unknown
(run 3, node 1) restarting after 490 global fixings of integer variables

(restart) converted 10 cuts from the global cut pool into linear constraints

presolving:
(round 1, fast)       490 del vars, 0 del conss, 0 add conss, 0 chg bounds, 0 chg sides, 520 chg coeffs, 0 upgd conss, 0 impls, 2957 clqs
(round 2, exhaustive) 490 del vars, 0 del conss, 0 add conss, 0 chg bounds, 0 chg sides, 520 chg coeffs, 10 upgd conss, 0 impls, 2957 clqs
presolving (3 rounds: 3 fast, 2 medium, 2 exhaustive):
 490 deleted vars, 0 deleted constraints, 0 added constraints, 0 tightened bounds, 0 added holes, 0 changed sides, 521 changed coefficients
 0 implications, 2957 cliques
presolved problem has 3022 variables (3022 bin, 0 int, 0 impl, 0 cont) and 3070 constraints
     42 constraints of type <knapsack>
   2957 constraints of type <setppc>
     71 constraints of type <logicor>
transformed objective value is always integral (scale: 1)
Presolving Time: 1.60
transformed 9/11 original solutions to the transformed problem space

 time | node  | left  |LP iter|LP it/n|mem/heur|mdpt |vars |cons |rows |cuts |sepa|confs|strbr|  dualbound   | primalbound  |  gap   | compl. 
 54.3s|     1 |     0 | 64280 |     - |   195M |   0 |3022 |3070 |3050 |   0 |  0 |  36 |   0 | 1.026819e+04 | 1.082900e+04 |   5.46%| unknown
 54.4s|     1 |     0 | 64280 |     - |   195M |   0 |3022 |3070 |3000 |   0 |  0 |  36 |   0 | 1.026819e+04 | 1.082900e+04 |   5.46%| unknown
 54.8s|     1 |     0 | 64386 |     - |   195M |   0 |3022 |3020 |3001 |   1 |  1 |  36 |   0 | 1.027094e+04 | 1.082900e+04 |   5.43%| unknown
 66.5s|     1 |     2 | 70937 |     - |   197M |   0 |3022 |2977 |3001 |   1 |  3 |  41 |  20 | 1.035076e+04 | 1.082900e+04 |   4.62%| unknown
(run 4, node 1) restarting after 100 global fixings of integer variables

(restart) converted 1 cuts from the global cut pool into linear constraints

presolving:
(round 1, fast)       100 del vars, 0 del conss, 0 add conss, 0 chg bounds, 0 chg sides, 106 chg coeffs, 0 upgd conss, 0 impls, 2859 clqs
   (66.5s) running MILP presolver
   (66.6s) MILP presolver found nothing
presolving (2 rounds: 2 fast, 1 medium, 1 exhaustive):
 100 deleted vars, 0 deleted constraints, 0 added constraints, 0 tightened bounds, 0 added holes, 0 changed sides, 107 changed coefficients
 0 implications, 2859 cliques
presolved problem has 2922 variables (2922 bin, 0 int, 0 impl, 0 cont) and 2978 constraints
     43 constraints of type <knapsack>
   2859 constraints of type <setppc>
     76 constraints of type <logicor>
transformed objective value is always integral (scale: 1)
Presolving Time: 1.76
transformed 11/13 original solutions to the transformed problem space

 time | node  | left  |LP iter|LP it/n|mem/heur|mdpt |vars |cons |rows |cuts |sepa|confs|strbr|  dualbound   | primalbound  |  gap   | compl. 
 68.6s|     1 |     0 | 78070 |     - |   198M |   0 |2922 |2978 |2953 |   0 |  0 |  41 |  20 | 1.035076e+04 | 1.082900e+04 |   4.62%| unknown
 68.7s|     1 |     0 | 78070 |     - |   198M |   0 |2922 |2978 |2904 |   0 |  0 |  41 |  20 | 1.035076e+04 | 1.082900e+04 |   4.62%| unknown
 69.3s|     1 |     0 | 78237 |     - |   198M |   0 |2922 |2929 |2905 |   1 |  1 |  41 |  20 | 1.035076e+04 | 1.082900e+04 |   4.62%| unknown
 69.8s|     1 |     0 | 78366 |     - |   199M |   0 |2922 |2929 |2906 |   2 |  2 |  41 |  20 | 1.035076e+04 | 1.082900e+04 |   4.62%| unknown
 78.1s|     1 |     2 | 81579 |     - |   200M |   0 |2922 |2888 |2906 |   2 |  4 |  45 |  39 | 1.036133e+04 | 1.082900e+04 |   4.51%| unknown
*84.1s|     3 |     2 | 84134 |6264.5 |strongbr|   1 |2922 |2890 |2900 |   2 |  3 |  47 |  64 | 1.049925e+04 | 1.073600e+04 |   2.25%| unknown
*85.2s|     5 |     0 | 85956 |4926.1 |    LP  |   2 |2922 |1000 |2900 |   2 |  2 |  58 |  80 | 1.071600e+04 | 1.071600e+04 |   0.00%|  79.91%

SCIP Status        : problem is solved [optimal solution found]
Solving Time (sec) : 85.18
Solving Nodes      : 5 (total of 9 nodes in 5 runs)
Primal Bound       : +1.07160000000000e+04 (18 solutions)
Dual Bound         : +1.07160000000000e+04
Gap                : 0.00 %
Solve Status: optimal
Solve Time: 85.19 seconds
Objective Value: 10716.00
